NAME: tsp20-46
TYPE: TSP
DIMENSION: 20
EDGE_WEIGHT_TYPE: EUC_2D
NODE_COORD_SECTION
0 48 58
1 72 69
2 12 70
3 36 92
4 22 30
5 3 30
6 34 2
7 58 11
8 60 5
9 21 29
10 77 86
11 77 89
12 93 15
13 27 67
14 46 60
15 94 25
16 87 72
17 30 38
18 41 18
19 41 44
EOF